; PUSH cw_5 PUSH cw_4 SLOAD SWAP1 => PUSH cw_4 SLOAD PUSH cw_5
(set-option :produce-proofs true)
; 
(set-info :status unknown)
(declare-fun storage_t ((_ BitVec 256) (_ BitVec 256) (_ BitVec 256) Int (_ BitVec 256)) (_ BitVec 256))
(declare-fun w_4 () (_ BitVec 256))
(declare-fun w_5 () (_ BitVec 256))
(declare-fun storage_s ((_ BitVec 256) (_ BitVec 256) (_ BitVec 256) Int (_ BitVec 256)) (_ BitVec 256))
(declare-fun exc_halt_t (Int) Bool)
(declare-fun exc_halt_s (Int) Bool)
(declare-fun sc_t (Int) (_ BitVec 6))
(declare-fun stack_t ((_ BitVec 256) (_ BitVec 256) (_ BitVec 256) Int (_ BitVec 6)) (_ BitVec 256))
(declare-fun stack_s ((_ BitVec 256) (_ BitVec 256) (_ BitVec 256) Int (_ BitVec 6)) (_ BitVec 256))
(declare-fun sc_s (Int) (_ BitVec 6))
(declare-fun used_gas_t ((_ BitVec 256) (_ BitVec 256) (_ BitVec 256) Int) Int)
(declare-fun used_gas_s ((_ BitVec 256) (_ BitVec 256) (_ BitVec 256) Int) Int)
(assert
 (exists ((x_SLOAD_0 (_ BitVec 256)) )(let (($x8350 (forall ((w (_ BitVec 256)) )(let ((?x5245 (storage_t x_SLOAD_0 w_5 w_4 3 w)))
 (let ((?x8433 (storage_s x_SLOAD_0 w_5 w_4 4 w)))
 (= ?x8433 ?x5245))))
 ))
 (let (($x10336 (exc_halt_t 3)))
 (let (($x64 (exc_halt_s 4)))
 (let (($x1322 (= $x64 $x10336)))
 (let (($x1362 (forall ((n (_ BitVec 6)) )(let ((?x6496 (stack_t x_SLOAD_0 w_5 w_4 3 n)))
 (let ((?x3091 (stack_s x_SLOAD_0 w_5 w_4 4 n)))
 (let (($x1256 (= ?x3091 ?x6496)))
 (or $x1256 (bvsle (sc_t 3) n))))))
 ))
 (let ((?x2012 (sc_t 3)))
 (let ((?x4305 (sc_s 4)))
 (let (($x1925 (= ?x4305 ?x2012)))
 (let ((?x6621 (used_gas_t x_SLOAD_0 w_5 w_4 0)))
 (let ((?x4600 (used_gas_s x_SLOAD_0 w_5 w_4 0)))
 (let (($x8751 (= ?x4600 ?x6621)))
 (let (($x2401 (forall ((w (_ BitVec 256)) )(let ((?x5853 (storage_t x_SLOAD_0 w_5 w_4 0 w)))
 (let ((?x8203 (storage_s x_SLOAD_0 w_5 w_4 0 w)))
 (= ?x8203 ?x5853))))
 ))
 (let (($x56 (exc_halt_t 0)))
 (let (($x57 (exc_halt_s 0)))
 (let (($x58 (= $x57 $x56)))
 (let (($x7992 (forall ((n (_ BitVec 6)) )(let ((?x6733 (stack_t x_SLOAD_0 w_5 w_4 0 n)))
 (let ((?x4935 (stack_s x_SLOAD_0 w_5 w_4 0 n)))
 (let (($x6766 (= ?x4935 ?x6733)))
 (let ((?x63 (sc_t 0)))
 (let (($x5858 (bvsle ?x63 n)))
 (or $x5858 $x6766)))))))
 ))
 (let ((?x63 (sc_t 0)))
 (let ((?x72 (sc_s 0)))
 (let (($x73 (= ?x72 ?x63)))
 (let (($x5188 (not (= ((_ extract 6 6) (bvadd (_ bv1 7) (concat (_ bv0 1) (sc_t 2)))) (_ bv0 1)))))
 (let (($x903 (exc_halt_t 2)))
 (let (($x10875 (= $x10336 (or $x903 $x5188))))
 (let (($x8349 (forall ((w (_ BitVec 256)) )(let ((?x9674 (storage_t x_SLOAD_0 w_5 w_4 2 w)))
 (let ((?x5245 (storage_t x_SLOAD_0 w_5 w_4 3 w)))
 (= ?x5245 ?x9674))))
 ))
 (let (($x7814 (forall ((n (_ BitVec 6)) )(let ((?x2153 (stack_t x_SLOAD_0 w_5 w_4 2 n)))
 (let ((?x6496 (stack_t x_SLOAD_0 w_5 w_4 3 n)))
 (let ((?x4056 (sc_t 2)))
 (let (($x355 (bvsle ?x4056 n)))
 (or $x355 (= ?x6496 ?x2153)))))))
 ))
 (let (($x5182 (= ?x2012 (bvadd (_ bv1 6) (sc_t 2)))))
 (let ((?x8176 (used_gas_t x_SLOAD_0 w_5 w_4 3)))
 (let (($x8857 (= ?x8176 (+ 3 (used_gas_t x_SLOAD_0 w_5 w_4 2)))))
 (let (($x8850 (= (stack_t x_SLOAD_0 w_5 w_4 3 (sc_t 2)) w_5)))
 (let (($x6723 (= $x903 (or (exc_halt_t 1) (not (bvsle (_ bv0 6) (bvadd (_ bv63 6) (sc_t 1))))))))
 (let (($x8777 (forall ((w (_ BitVec 256)) )(let ((?x8843 (storage_t x_SLOAD_0 w_5 w_4 1 w)))
 (let ((?x9674 (storage_t x_SLOAD_0 w_5 w_4 2 w)))
 (= ?x9674 ?x8843))))
 ))
 (let (($x2896 (forall ((n (_ BitVec 6)) )(let ((?x7972 (stack_t x_SLOAD_0 w_5 w_4 1 n)))
 (let ((?x2153 (stack_t x_SLOAD_0 w_5 w_4 2 n)))
 (let (($x7842 (= ?x2153 ?x7972)))
 (or (bvsle (bvadd (_ bv63 6) (sc_t 1)) n) $x7842)))))
 ))
 (let ((?x8523 (used_gas_t x_SLOAD_0 w_5 w_4 2)))
 (let ((?x4897 (storage_t x_SLOAD_0 w_5 w_4 1 (stack_t x_SLOAD_0 w_5 w_4 1 (bvadd (_ bv63 6) (sc_t 1))))))
 (let (($x1920 (exc_halt_t 1)))
 (let (($x2670 (= $x1920 (or $x56 (not (= ((_ extract 6 6) (bvadd (_ bv1 7) (concat (_ bv0 1) ?x63))) (_ bv0 1)))))))
 (let (($x7359 (forall ((w (_ BitVec 256)) )(let ((?x5853 (storage_t x_SLOAD_0 w_5 w_4 0 w)))
 (let ((?x8843 (storage_t x_SLOAD_0 w_5 w_4 1 w)))
 (= ?x8843 ?x5853))))
 ))
 (let (($x5952 (forall ((n (_ BitVec 6)) )(let ((?x6733 (stack_t x_SLOAD_0 w_5 w_4 0 n)))
 (let ((?x7972 (stack_t x_SLOAD_0 w_5 w_4 1 n)))
 (let ((?x63 (sc_t 0)))
 (let (($x5858 (bvsle ?x63 n)))
 (or $x5858 (= ?x7972 ?x6733)))))))
 ))
 (let ((?x4023 (sc_t 1)))
 (let (($x5939 (= ?x4023 (bvadd (_ bv1 6) ?x63))))
 (let ((?x7941 (used_gas_t x_SLOAD_0 w_5 w_4 1)))
 (let (($x7818 (= ?x7941 (+ 3 ?x6621))))
 (let (($x7832 (= (stack_t x_SLOAD_0 w_5 w_4 1 ?x63) w_4)))
 (let (($x5993 (= $x64 (or (exc_halt_s 3) (not (bvsle (_ bv0 6) (bvadd (_ bv62 6) (sc_s 3))))))))
 (let (($x9292 (forall ((w (_ BitVec 256)) )(let ((?x7959 (storage_s x_SLOAD_0 w_5 w_4 3 w)))
 (let ((?x8433 (storage_s x_SLOAD_0 w_5 w_4 4 w)))
 (= ?x8433 ?x7959))))
 ))
 (let (($x982 (forall ((n (_ BitVec 6)) )(let ((?x275 (sc_s 3)))
 (let ((?x10428 (bvadd (_ bv62 6) ?x275)))
 (let (($x10913 (bvsle ?x10428 n)))
 (let ((?x5930 (stack_s x_SLOAD_0 w_5 w_4 3 n)))
 (let ((?x3091 (stack_s x_SLOAD_0 w_5 w_4 4 n)))
 (let (($x8694 (= ?x3091 ?x5930)))
 (or $x8694 $x10913))))))))
 ))
 (let ((?x275 (sc_s 3)))
 (let (($x8390 (= ?x4305 ?x275)))
 (let ((?x5963 (used_gas_s x_SLOAD_0 w_5 w_4 4)))
 (let (($x8959 (= ?x5963 (+ 3 (used_gas_s x_SLOAD_0 w_5 w_4 3)))))
 (let ((?x10578 (bvadd (_ bv63 6) ?x275)))
 (let ((?x4615 (stack_s x_SLOAD_0 w_5 w_4 3 ?x10578)))
 (let ((?x10588 (bvadd (_ bv62 6) ?x4305)))
 (let ((?x9245 (stack_s x_SLOAD_0 w_5 w_4 4 ?x10588)))
 (let ((?x10396 (bvadd (_ bv63 6) ?x4305)))
 (let ((?x7996 (stack_s x_SLOAD_0 w_5 w_4 4 ?x10396)))
 (let (($x292 (exc_halt_s 3)))
 (let (($x625 (= $x292 (or (exc_halt_s 2) (not (bvsle (_ bv0 6) (bvadd (_ bv63 6) (sc_s 2))))))))
 (let (($x7538 (forall ((w (_ BitVec 256)) )(let ((?x3333 (storage_s x_SLOAD_0 w_5 w_4 2 w)))
 (let ((?x7959 (storage_s x_SLOAD_0 w_5 w_4 3 w)))
 (= ?x7959 ?x3333))))
 ))
 (let (($x1588 (forall ((n (_ BitVec 6)) )(let ((?x218 (sc_s 2)))
 (let ((?x9084 (bvadd (_ bv63 6) ?x218)))
 (let (($x10462 (bvsle ?x9084 n)))
 (let ((?x5597 (stack_s x_SLOAD_0 w_5 w_4 2 n)))
 (let ((?x5930 (stack_s x_SLOAD_0 w_5 w_4 3 n)))
 (let (($x5238 (= ?x5930 ?x5597)))
 (or $x5238 $x10462))))))))
 ))
 (let ((?x218 (sc_s 2)))
 (let (($x10987 (= ?x275 ?x218)))
 (let ((?x5589 (used_gas_s x_SLOAD_0 w_5 w_4 3)))
 (let ((?x9084 (bvadd (_ bv63 6) ?x218)))
 (let ((?x2287 (stack_s x_SLOAD_0 w_5 w_4 2 ?x9084)))
 (let (($x6375 (not (= ((_ extract 6 6) (bvadd (_ bv1 7) (concat (_ bv0 1) (sc_s 1)))) (_ bv0 1)))))
 (let (($x189 (exc_halt_s 1)))
 (let (($x247 (exc_halt_s 2)))
 (let (($x3676 (= $x247 (or $x189 $x6375))))
 (let (($x8897 (forall ((w (_ BitVec 256)) )(let ((?x7922 (storage_s x_SLOAD_0 w_5 w_4 1 w)))
 (let ((?x3333 (storage_s x_SLOAD_0 w_5 w_4 2 w)))
 (= ?x3333 ?x7922))))
 ))
 (let (($x2022 (forall ((n (_ BitVec 6)) )(let ((?x154 (sc_s 1)))
 (let (($x10983 (bvsle ?x154 n)))
 (let ((?x8632 (stack_s x_SLOAD_0 w_5 w_4 1 n)))
 (let ((?x5597 (stack_s x_SLOAD_0 w_5 w_4 2 n)))
 (let (($x8917 (= ?x5597 ?x8632)))
 (or $x8917 $x10983)))))))
 ))
 (let (($x10982 (= ?x218 (bvadd (_ bv1 6) (sc_s 1)))))
 (let ((?x2251 (used_gas_s x_SLOAD_0 w_5 w_4 2)))
 (let (($x2046 (= $x189 (or $x57 (not (= ((_ extract 6 6) (bvadd (_ bv1 7) (concat (_ bv0 1) ?x72))) (_ bv0 1)))))))
 (let (($x9010 (forall ((w (_ BitVec 256)) )(let ((?x8203 (storage_s x_SLOAD_0 w_5 w_4 0 w)))
 (let ((?x7922 (storage_s x_SLOAD_0 w_5 w_4 1 w)))
 (= ?x7922 ?x8203))))
 ))
 (let (($x8793 (forall ((n (_ BitVec 6)) )(let ((?x72 (sc_s 0)))
 (let (($x10975 (bvsle ?x72 n)))
 (let ((?x4935 (stack_s x_SLOAD_0 w_5 w_4 0 n)))
 (let ((?x8632 (stack_s x_SLOAD_0 w_5 w_4 1 n)))
 (or (= ?x8632 ?x4935) $x10975))))))
 ))
 (let ((?x154 (sc_s 1)))
 (let (($x7560 (= ?x154 (bvadd (_ bv1 6) ?x72))))
 (let ((?x8193 (used_gas_s x_SLOAD_0 w_5 w_4 1)))
 (let (($x8108 (= ?x8193 (+ 3 ?x4600))))
 (let (($x8156 (= (stack_s x_SLOAD_0 w_5 w_4 1 ?x72) w_5)))
 (let (($x2007 (forall ((w (_ BitVec 256)) )(let ((?x4702 (ite (= w (stack_s x_SLOAD_0 w_5 w_4 2 (bvadd (_ bv63 6) (sc_s 2)))) x_SLOAD_0 (_ bv0 256))))
 (let ((?x8203 (storage_s x_SLOAD_0 w_5 w_4 0 w)))
 (= ?x8203 ?x4702))))
 ))
 (let (($x6212 (= ?x4600 0)))
 (let (($x4937 (not $x57)))
 (let (($x136 (= ?x72 (_ bv0 6))))
 (and $x136 $x4937 $x6212 $x2007 $x8156 $x8108 $x7560 $x8793 $x9010 $x2046 (= (stack_s x_SLOAD_0 w_5 w_4 2 ?x154) w_4) (= ?x2251 (+ 3 ?x8193)) $x10982 $x2022 $x8897 $x3676 (= ?x4615 (storage_s x_SLOAD_0 w_5 w_4 2 ?x2287)) (= ?x5589 (+ 200 ?x2251)) $x10987 $x1588 $x7538 $x625 (= ?x7996 (stack_s x_SLOAD_0 w_5 w_4 3 (bvadd (_ bv62 6) ?x275))) (= ?x9245 ?x4615) $x8959 $x8390 $x982 $x9292 $x5993 $x7832 $x7818 $x5939 $x5952 $x7359 $x2670 (= (stack_t x_SLOAD_0 w_5 w_4 2 (bvadd (_ bv63 6) (sc_t 2))) ?x4897) (= ?x8523 (+ 200 ?x7941)) (= (sc_t 2) ?x4023) $x2896 $x8777 $x6723 $x8850 $x8857 $x5182 $x7814 $x8349 $x10875 $x73 $x7992 $x58 $x2401 $x8751 (not (and $x1925 $x1362 $x1322 $x8350))))))))))))))))))))))))))))))))))))))))))))))))))))))))))))))))))))))))))))))))))))))))
 )
(check-sat)
(get-proof)
